20181231 8800.00 7256.48
20180611 8800.00 7242.05
20170630 8800.00 4572.59
20161231 8800.00 4542.94
20160630 8800.00 4542.94
20160613 8800.00 4542.94
20151231 8800.00 2200.00
20150630 8800.00 2200.00
